
List of user-set options:

                                    Name   Value                used
                             alpha_for_y = safer-min-dual-infeas  yes
                        file_print_level = 5                     yes
                   hessian_approximation = limited-memory        yes
                           linear_solver = mumps                 yes
                                max_iter = 1000                  yes
                      nlp_scaling_method = gradient-based        yes
                             output_file = IPOPT.out             yes
                             print_level = 5                     yes
                      print_user_options = yes                   yes
                                      sb = yes                   yes
                                     tol = 5e-05                 yes
This is Ipopt version 3.14.11, running with linear solver MUMPS 5.2.1.

Number of nonzeros in equality constraint Jacobian...:    19089
Number of nonzeros in inequality constraint Jacobian.:    43020
Number of nonzeros in Lagrangian Hessian.............:        0

Total number of variables............................:      318
                     variables with only lower bounds:        0
                variables with lower and upper bounds:      240
                     variables with only upper bounds:        0
Total number of equality constraints.................:      236
Total number of inequality constraints...............:      270
        inequality constraints with only lower bounds:       92
   inequality constraints with lower and upper bounds:      118
        inequality constraints with only upper bounds:       60

iter    objective    inf_pr   inf_du lg(mu)  ||d||  lg(rg) alpha_du alpha_pr  ls
   0  2.0000000e+00 1.00e+01 1.02e+00   0.0 0.00e+00    -  0.00e+00 0.00e+00   0
   1  1.9947663e+00 1.00e+01 1.27e+01  11.6 2.13e+13    -  2.91e-13 3.94e-14f  1
   2  2.0095592e+00 1.00e+01 2.71e+01   6.4 1.20e+08    -  2.75e-08 2.49e-08f  1
   3  1.9774750e+00 1.00e+01 5.05e+05  12.3 4.46e+13    -  3.57e-13 1.93e-13f  1
   4  1.9247828e+00 1.00e+01 5.20e+05   6.4 2.37e+05    -  2.53e-04 6.89e-05f  1
   5  1.8672902e+00 1.00e+01 5.20e+05   6.4 4.27e+04    -  2.10e-04 2.74e-04f  1
   6  1.8767419e+00 9.98e+00 1.81e+06   6.4 1.50e+04    -  6.70e-03 1.17e-03f  1
   7  1.8380239e+00 9.98e+00 1.52e+07  12.3 1.48e+09    -  3.12e-08 1.56e-08f  1
   8  1.7604785e+00 9.18e+00 8.07e+07   6.4 4.70e+02    -  1.91e-01 8.08e-02f  1
   9  1.3645797e+00 6.20e+00 1.45e+08   6.3 9.96e+01    -  5.90e-01 3.24e-01f  1
iter    objective    inf_pr   inf_du lg(mu)  ||d||  lg(rg) alpha_du alpha_pr  ls
  10  1.2427952e+00 5.06e+00 1.54e+08   5.9 3.81e+01    -  5.19e-02 1.84e-01h  1
  11  1.0804703e+00 3.41e+00 1.37e+08   5.9 4.23e+01    -  2.08e-01 3.26e-01h  1
  12  9.9032265e-01 2.36e+00 1.30e+08   5.8 1.95e+01    -  5.64e-01 3.08e-01h  1
  13  9.7715675e-01 2.36e+00 3.55e+11   9.4 3.52e+04    -  9.92e-01 9.08e-04f  1
  14  8.5851443e-01 2.36e+00 3.79e+11   9.2 2.64e+01    -  9.29e-01 5.98e-01h  1
  15  8.4001391e-01 1.78e+00 1.87e+11   3.3 1.76e+01    -  6.00e-01 2.81e-01h  1
  16  8.3713034e-01 1.64e+00 9.99e+10   6.8 1.62e+01    -  6.73e-01 7.77e-02h  1
  17  8.2122074e-01 5.39e-01 1.25e+11   8.2 2.69e+01    -  1.00e+00 6.64e-01h  1
  18  8.2837006e-01 2.40e+00 5.07e+11   8.8 3.24e+01    -  1.00e+00 6.66e-01H  1
  19  8.1459672e-01 2.30e-01 2.26e+11   8.7 2.24e+01    -  1.00e+00 7.60e-01f  1
iter    objective    inf_pr   inf_du lg(mu)  ||d||  lg(rg) alpha_du alpha_pr  ls
  20  8.2658212e-01 6.62e-01 1.37e+11   8.2 1.09e+01    -  6.95e-01 7.09e-01f  1
  21  8.3358020e-01 8.06e-01 4.74e+10   8.2 3.24e+01    -  7.18e-01 5.48e-01f  1
  22  8.3749129e-01 3.75e-01 7.26e+10   8.1 2.77e+01    -  7.38e-01 5.64e-01h  1
  23  8.3496397e-01 3.16e-02 1.58e+10   7.4 1.39e+01    -  7.92e-01 8.59e-01h  1
  24  8.3530131e-01 1.11e-01 6.66e+09   7.1 1.31e+01    -  8.94e-01 7.43e-01h  1
  25  8.3389154e-01 4.57e-02 2.37e+09   6.7 1.04e+01    -  1.00e+00 8.74e-01h  1
  26  8.3502965e-01 2.93e-03 1.01e+09   6.1 3.29e+00    -  1.00e+00 1.00e+00h  1
  27  8.3522282e-01 7.30e-04 3.66e+07   5.2 1.23e+00    -  1.00e+00 1.00e+00h  1
  28  8.3526070e-01 7.90e-06 2.35e+06   3.8 4.05e-01    -  1.00e+00 1.00e+00h  1
  29  8.3525788e-01 3.03e-06 5.42e+04   2.3 9.76e-02    -  1.00e+00 1.00e+00f  1
iter    objective    inf_pr   inf_du lg(mu)  ||d||  lg(rg) alpha_du alpha_pr  ls
  30  8.3525830e-01 1.46e-05 1.84e+03   1.0 2.48e-01    -  9.90e-01 1.00e+00f  1
  31  8.3623763e-01 4.99e-01 5.18e+03   1.0 5.17e+00    -  1.00e+00 1.00e+00f  1
  32  8.3621903e-01 1.98e-03 1.33e+03   0.3 9.37e-01    -  9.00e-01 1.00e+00h  1
  33  8.3621362e-01 1.11e-05 7.39e+01  -0.4 1.94e-01    -  1.00e+00 1.00e+00h  1
  34  8.3614966e-01 2.41e-05 1.55e+01  -1.1 3.39e-01    -  1.00e+00 1.00e+00h  1
  35  8.3597903e-01 9.91e-05 2.08e+00  -1.8 6.22e-01    -  1.00e+00 1.00e+00h  1
  36  8.3578794e-01 3.43e-05 1.83e-01  -2.7 4.95e-01    -  1.00e+00 1.00e+00h  1
  37  8.3276908e-01 1.31e-03 3.54e-01  -2.7 2.14e+00    -  1.00e+00 1.00e+00h  1
  38  8.2712936e-01 2.93e-03 9.15e-01  -2.9 4.02e+00    -  1.00e+00 1.00e+00h  1
  39  8.2761871e-01 8.19e-01 5.60e-01  -2.7 1.54e+01    -  6.34e-01 6.25e-01h  1
iter    objective    inf_pr   inf_du lg(mu)  ||d||  lg(rg) alpha_du alpha_pr  ls
  40  8.2769059e-01 6.68e-01 1.09e+00  -2.8 6.36e+00    -  1.00e+00 6.97e-01h  1
  41  8.2425847e-01 2.65e-01 4.59e-01  -2.8 1.01e+01    -  1.00e+00 4.54e-01h  2
  42  8.1549232e-01 5.92e-03 7.49e-01  -3.3 4.40e+00    -  1.00e+00 1.00e+00h  1
  43  7.8426041e-01 9.23e-01 1.56e+00  -3.4 1.42e+01    -  6.41e-01 7.46e-01h  1
  44  7.8637698e-01 1.83e+00 1.56e+00  -3.0 3.53e+01    -  1.00e+00 7.39e-01h  1
  45  7.8403013e-01 8.52e-01 5.59e-01  -3.1 1.79e+01    -  9.14e-01 4.67e-01h  1
  46  7.6923249e-01 1.16e+00 6.99e-01  -3.3 3.80e+01    -  2.60e-01 9.86e-01h  1
  47  7.7521921e-01 3.27e-01 1.16e+00  -3.3 1.03e+01    -  8.66e-01 9.89e-01h  1
  48  7.6964281e-01 4.04e-01 6.20e-01  -5.0 5.02e+00    -  5.94e-01 6.65e-01h  1
  49  7.6451945e-01 2.65e-01 2.17e-01  -4.4 6.89e+00    -  4.61e-01 3.39e-01h  1
iter    objective    inf_pr   inf_du lg(mu)  ||d||  lg(rg) alpha_du alpha_pr  ls
  50  7.5274920e-01 1.84e-01 7.21e-01  -9.9 2.17e+01    -  1.24e-01 3.11e-01h  1
  51  7.4984430e-01 1.20e-01 5.22e-01  -9.9 1.54e+01    -  1.97e-01 3.43e-01h  1
  52  7.4499725e-01 1.68e+00 1.54e-01  -3.8 2.96e+01    -  7.33e-02 3.44e-01h  1
  53  7.5153900e-01 2.15e+00 7.97e-01  -3.3 3.50e+01    -  3.42e-01 6.21e-01h  1
  54  7.4546187e-01 9.94e-01 3.77e-01  -3.7 9.90e+00    -  5.40e-01 6.12e-01h  1
  55  7.4197808e-01 1.08e+00 3.47e-01  -3.7 2.19e+01    -  3.39e-01 5.83e-01h  1
  56  7.4655112e-01 7.86e-01 3.11e-01  -3.7 1.48e+01    -  1.00e+00 6.97e-01h  1
  57  7.5065985e-01 4.45e-01 1.15e-01  -3.8 4.85e+00    -  8.59e-01 7.77e-01h  1
  58  7.5139010e-01 5.74e-01 1.95e-01  -3.8 8.20e+00    -  1.00e+00 5.70e-01h  1
  59  7.5198065e-01 5.68e-01 1.62e-01  -3.8 3.24e+00    -  3.71e-01 3.03e-01h  1
iter    objective    inf_pr   inf_du lg(mu)  ||d||  lg(rg) alpha_du alpha_pr  ls
  60  7.5252077e-01 3.64e-01 7.25e-02  -3.8 4.57e+00    -  3.95e-01 4.53e-01h  2
  61  7.5374109e-01 3.00e-01 9.40e-02  -3.8 1.41e+00    -  1.00e+00 5.95e-01h  1
  62  7.5236494e-01 1.63e-02 5.89e-02  -9.8 1.73e+00    -  8.41e-01 9.25e-01h  1
  63  7.5277050e-01 7.12e-01 1.39e-01  -4.0 6.66e+00    -  1.00e+00 1.00e+00h  1
  64  7.5071626e-01 7.23e-01 1.59e-01  -4.1 4.01e+00    -  8.69e-01 1.00e+00h  1
  65  7.5139225e-01 1.28e-01 1.03e-01  -4.1 4.03e+00    -  7.56e-01 8.84e-01h  1
  66  7.5141340e-01 3.43e-02 1.66e-01  -4.1 2.48e+00    -  8.47e-01 1.00e+00h  1
  67  7.4998486e-01 3.61e-03 3.20e-02  -4.5 1.14e+00    -  1.00e+00 1.00e+00h  1
  68  7.4838668e-01 5.03e-01 2.26e-01  -4.5 7.90e+00    -  4.69e-01 6.76e-01h  1
  69  7.4812002e-01 8.72e-01 7.11e-02  -4.2 5.32e+00    -  1.00e+00 1.00e+00h  1
iter    objective    inf_pr   inf_du lg(mu)  ||d||  lg(rg) alpha_du alpha_pr  ls
  70  7.4762426e-01 4.86e-03 1.63e-02  -5.5 2.23e+00    -  6.66e-01 1.00e+00h  1
  71  7.4767754e-01 2.49e-03 1.02e-02  -4.7 2.22e+00    -  4.12e-01 5.00e-01h  2
  72  7.4754795e-01 1.14e-01 3.27e-02  -4.8 1.58e+00    -  5.37e-01 4.52e-01h  2
  73  7.4712503e-01 8.10e-01 7.46e-02  -4.8 1.90e+00    -  1.00e+00 1.00e+00h  1
  74  7.4598471e-01 1.35e-01 1.52e-01  -4.9 2.48e+00    -  1.00e+00 1.00e+00h  1
  75  7.4759888e-01 1.34e+00 1.07e-01  -4.3 8.45e+00    -  4.02e-01 1.00e+00h  1
  76  7.4425451e-01 7.56e-01 1.46e-01  -4.6 4.18e+00    -  5.83e-01 1.00e+00h  1
  77  7.4496645e-01 3.45e-02 3.69e-02  -4.3 6.76e+00    -  8.14e-01 5.00e-01h  2
  78  7.4592600e-01 1.17e-01 7.54e-02  -4.5 2.97e+00    -  9.05e-01 2.84e-01H  1
  79  7.4691759e-01 5.20e-04 3.75e-02  -5.5 1.10e+00    -  9.39e-01 1.00e+00h  1
iter    objective    inf_pr   inf_du lg(mu)  ||d||  lg(rg) alpha_du alpha_pr  ls
  80  7.4717569e-01 2.85e-01 6.43e-02  -4.5 4.66e+00    -  1.00e+00 5.14e-01h  1
  81  7.4704524e-01 2.11e-03 1.43e-02  -4.6 1.04e+00    -  7.03e-01 1.00e+00h  1
  82  7.4742496e-01 1.78e-04 1.27e-02  -4.6 7.29e-01    -  1.00e+00 1.00e+00H  1
  83  7.4699841e-01 1.08e-04 5.84e-03  -5.0 5.92e-01    -  1.00e+00 1.00e+00h  1
  84  7.4686801e-01 2.11e+00 1.18e-01  -4.5 6.45e+00    -  1.00e+00 7.65e-01h  1
  85  7.4545236e-01 9.28e-02 3.06e-02  -4.6 3.07e+00    -  9.71e-01 9.77e-01h  1
  86  7.4825087e-01 3.84e-01 2.24e-02  -4.3 1.81e+00    -  6.66e-01 1.00e+00h  1
  87  7.4753592e-01 2.26e-03 3.99e-02  -4.5 1.66e+00    -  1.00e+00 1.00e+00h  1
  88  7.4761546e-01 3.16e-02 1.54e-02  -4.5 2.06e+00    -  6.88e-01 1.00e+00h  1
  89  7.4768922e-01 9.81e-04 8.80e-03  -4.5 4.79e-01    -  1.00e+00 5.00e-01h  2
iter    objective    inf_pr   inf_du lg(mu)  ||d||  lg(rg) alpha_du alpha_pr  ls
  90  7.4774913e-01 7.61e-04 8.16e-03  -4.5 7.39e-01    -  1.00e+00 2.50e-01h  3
  91  7.4793146e-01 7.06e-05 4.68e-03  -4.5 3.65e-01    -  1.00e+00 1.00e+00h  1
  92  7.4796442e-01 4.80e-05 2.98e-03  -4.5 5.62e-02    -  1.00e+00 1.00e+00h  1
  93  7.4794790e-01 2.42e-05 7.11e-03  -4.5 5.82e-02    -  1.00e+00 1.00e+00H  1
  94  7.4777490e-01 1.60e-05 3.17e-03  -5.4 1.11e-01    -  1.00e+00 1.00e+00h  1
  95  7.4857634e-01 4.56e-01 1.76e-02  -4.4 1.03e+00    -  1.00e+00 5.00e-01h  2
  96  7.4779900e-01 1.52e-03 7.00e-03  -4.5 5.32e-01    -  1.00e+00 1.00e+00h  1
  97  7.4778619e-01 2.61e-01 1.24e-02  -4.5 3.93e-01    -  7.19e-01 1.00e+00h  1
  98  7.4750619e-01 2.25e-03 8.25e-03  -4.5 5.67e-01    -  1.00e+00 1.00e+00h  1
  99  7.4773322e-01 4.65e-04 5.48e-03  -4.5 4.06e-01    -  1.00e+00 1.00e+00h  1
iter    objective    inf_pr   inf_du lg(mu)  ||d||  lg(rg) alpha_du alpha_pr  ls
 100  7.4781579e-01 2.50e-04 3.28e-03  -4.5 2.72e-01    -  1.00e+00 5.00e-01h  2
 101  7.4782903e-01 1.96e-04 2.28e-03  -4.5 9.96e-02    -  1.00e+00 2.50e-01h  3
 102  7.4786690e-01 7.14e-05 6.15e-03  -4.5 7.63e-02    -  1.00e+00 1.00e+00h  1
 103  7.4787965e-01 3.61e-05 1.41e-03  -4.5 3.59e-02    -  1.00e+00 1.00e+00h  1
 104  7.4788715e-01 2.71e-06 1.62e-03  -4.5 5.20e-02    -  1.00e+00 1.00e+00h  1
 105  7.4773393e-01 8.02e-06 3.47e-03  -5.6 6.31e-02    -  1.00e+00 1.00e+00h  1
 106  7.4770483e-01 3.89e-04 1.09e-02  -4.5 9.05e-01    -  1.00e+00 4.84e-01h  2
 107  7.4753761e-01 2.67e-04 5.35e-03  -4.6 2.42e-01    -  1.00e+00 1.00e+00h  1
 108  7.4753641e-01 1.20e-04 3.17e-03  -4.6 1.32e-01    -  1.00e+00 1.00e+00h  1
 109  7.4754436e-01 4.50e-05 1.74e-03  -4.6 1.28e-01    -  1.00e+00 1.00e+00h  1
iter    objective    inf_pr   inf_du lg(mu)  ||d||  lg(rg) alpha_du alpha_pr  ls
 110  7.4691465e-01 2.34e-04 1.01e-02  -5.3 4.71e-01    -  9.96e-01 1.00e+00h  1
 111  7.4677811e-01 1.18e+00 3.53e-02  -4.7 2.24e+00    -  1.00e+00 6.60e-01h  1
 112  7.4625846e-01 5.88e-03 4.31e-03  -4.8 1.77e+00    -  8.08e-01 1.00e+00h  1
 113  7.4652138e-01 3.01e-03 6.50e-03  -4.9 3.83e-01    -  9.98e-01 5.00e-01h  2
 114  7.4647712e-01 2.28e-03 1.83e-03  -5.1 1.14e+00    -  1.00e+00 2.50e-01h  3
 115  7.4634101e-01 1.32e-01 1.35e-02  -4.8 4.24e+00    -  1.00e+00 4.14e-01h  2
 116  7.4604698e-01 1.10e-01 2.36e-02  -4.9 2.77e+00    -  7.99e-01 1.00e+00h  1
 117  7.4577367e-01 4.59e-02 2.53e-02  -4.9 2.95e+00    -  4.66e-01 1.00e+00h  1
 118  7.4575750e-01 5.87e-03 1.20e-02  -4.9 1.81e+00    -  1.00e+00 1.00e+00h  1
 119  7.4596464e-01 1.31e-01 1.22e-02  -5.0 1.25e+00    -  1.00e+00 9.52e-01H  1
iter    objective    inf_pr   inf_du lg(mu)  ||d||  lg(rg) alpha_du alpha_pr  ls
 120  7.4561370e-01 2.24e-03 6.61e-03  -5.2 1.02e+00    -  1.00e+00 1.00e+00h  1
 121  7.4554174e-01 8.96e-01 2.74e-02  -4.9 1.42e+00    -  6.14e-01 1.00e+00h  1
 122  7.4495522e-01 5.06e-03 2.67e-03  -5.1 1.32e+00    -  1.00e+00 1.00e+00h  1
 123  7.4560479e-01 1.26e-04 2.61e-03  -5.3 4.17e-01    -  1.00e+00 1.00e+00h  1
 124  7.4538389e-01 6.95e-03 2.00e-02  -5.6 9.22e-01    -  1.00e+00 1.00e+00h  1
 125  7.4534517e-01 1.81e-02 2.54e-02  -5.3 1.95e+00    -  1.00e+00 1.00e+00h  1
 126  7.4508554e-01 3.30e-01 2.79e-02  -5.4 2.02e+00    -  7.70e-01 9.28e-01h  1
 127  7.4502760e-01 1.07e-02 1.66e-02  -5.4 1.08e+00    -  3.98e-01 5.40e-01h  1
 128  7.4511584e-01 1.43e-01 2.41e-02  -5.4 1.69e+00    -  5.27e-01 9.45e-01f  1
 129  7.4513657e-01 9.74e-04 5.43e-03  -5.4 5.28e-01    -  1.00e+00 1.00e+00h  1
iter    objective    inf_pr   inf_du lg(mu)  ||d||  lg(rg) alpha_du alpha_pr  ls
 130  7.4527950e-01 1.14e-04 4.14e-03  -5.4 2.38e-01    -  1.00e+00 1.00e+00h  1
 131  7.4515631e-01 3.43e-03 5.31e-03  -6.1 5.89e-01    -  1.00e+00 1.00e+00h  1
 132  7.4512525e-01 2.53e-02 5.18e-03  -5.4 1.21e+00    -  1.00e+00 1.00e+00h  1
 133  7.4505072e-01 1.14e-01 1.82e-02  -5.5 1.24e+00    -  6.30e-01 1.00e+00h  1
 134  7.4501947e-01 1.31e-03 3.33e-03  -5.5 9.19e-01    -  8.79e-01 1.00e+00h  1
 135  7.4503733e-01 3.64e-05 2.44e-03  -5.8 6.43e-01    -  1.00e+00 1.00e+00h  1
 136  7.4501229e-01 9.54e-02 2.04e-02  -5.6 2.45e+00    -  9.93e-01 1.00e+00h  1
 137  7.4481585e-01 1.15e-02 4.30e-03  -5.7 1.05e+00    -  6.88e-01 1.00e+00h  1
 138  7.4511604e-01 3.67e-04 6.87e-03  -5.4 1.74e+00    -  9.14e-01 1.00e+00h  1
 139  7.4503199e-01 1.84e-01 3.40e-02  -5.5 1.58e+00    -  8.55e-01 1.00e+00h  1
iter    objective    inf_pr   inf_du lg(mu)  ||d||  lg(rg) alpha_du alpha_pr  ls
 140  7.4492570e-01 6.29e-03 1.20e-02  -5.5 1.47e+00    -  8.65e-01 1.00e+00h  1
 141  7.4503966e-01 8.41e-03 8.10e-03  -5.5 9.49e-01    -  1.00e+00 5.61e-01H  1
 142  7.4506433e-01 6.79e-04 2.52e-03  -5.6 3.69e-01    -  1.00e+00 1.00e+00h  1
 143  7.4507476e-01 7.66e-06 1.51e-03  -5.6 1.93e-01    -  1.00e+00 1.00e+00h  1
 144  7.4494093e-01 5.35e-03 7.18e-03  -6.1 9.27e-01    -  1.00e+00 1.00e+00h  1
 145  7.4493812e-01 7.25e-02 7.91e-03  -5.9 6.25e-01    -  1.00e+00 1.00e+00h  1
 146  7.4487225e-01 6.70e-04 2.04e-03  -6.0 4.47e-01    -  1.00e+00 1.00e+00h  1
 147  7.4491213e-01 8.95e-06 1.40e-03  -6.2 3.88e-01    -  1.00e+00 1.00e+00h  1
 148  7.4492174e-01 1.74e-03 7.09e-03  -6.0 9.73e-01    -  1.00e+00 1.00e+00h  1
 149  7.4487796e-01 2.19e-04 4.88e-03  -6.1 3.60e-01    -  1.00e+00 1.00e+00h  1
iter    objective    inf_pr   inf_du lg(mu)  ||d||  lg(rg) alpha_du alpha_pr  ls
 150  7.4489384e-01 1.32e-04 3.28e-03  -6.1 4.88e-01    -  1.00e+00 1.00e+00h  1
 151  7.4486287e-01 3.48e-03 4.00e-03  -6.5 5.77e-01    -  1.00e+00 1.00e+00h  1
 152  7.4487858e-01 9.27e-03 5.78e-03  -6.2 8.84e-01    -  1.00e+00 1.00e+00h  1
 153  7.4486580e-01 2.35e-03 5.45e-03  -6.3 7.22e-01    -  9.50e-01 1.00e+00h  1
 154  7.4485655e-01 5.05e-04 3.39e-03  -6.3 2.93e-01    -  1.00e+00 1.00e+00h  1
 155  7.4490476e-01 3.61e-05 4.07e-03  -6.0 2.34e-01    -  1.00e+00 1.00e+00h  1
 156  7.4488015e-01 4.46e-05 3.06e-03  -6.3 2.20e-01    -  1.00e+00 1.00e+00h  1
 157  7.4484559e-01 1.58e-04 1.75e-03  -7.1 5.82e-01    -  1.00e+00 1.00e+00h  1
 158  7.4486569e-01 2.28e-01 1.90e-02  -6.2 2.22e+00    -  3.17e-01 1.00e+00h  1
 159  7.4474019e-01 1.21e-02 4.95e-03  -6.6 1.02e+00    -  5.72e-01 1.00e+00h  1
iter    objective    inf_pr   inf_du lg(mu)  ||d||  lg(rg) alpha_du alpha_pr  ls
 160  7.4482101e-01 4.64e-02 8.34e-03  -6.0 1.02e+00    -  3.19e-01 1.00e+00h  1
 161  7.4479477e-01 2.81e-03 2.83e-03  -6.4 6.15e-01    -  1.00e+00 9.86e-01h  1
 162  7.4482848e-01 9.80e-04 3.07e-03  -6.4 3.96e-01    -  1.00e+00 7.17e-01h  1
 163  7.4485507e-01 5.09e-04 1.44e-03  -6.6 1.41e-01    -  1.00e+00 1.00e+00h  1
 164  7.4484988e-01 1.80e-05 1.36e-03  -6.7 1.26e-01    -  1.00e+00 1.00e+00h  1
 165  7.4485119e-01 7.13e-06 7.41e-04  -6.7 6.98e-02    -  1.00e+00 1.00e+00h  1
 166  7.4483913e-01 8.39e-06 7.85e-04  -7.9 1.73e-01    -  1.00e+00 1.00e+00h  1
 167  7.4484162e-01 1.80e-03 3.52e-03  -6.8 1.09e+00    -  9.55e-01 6.26e-01h  1
 168  7.4483389e-01 2.81e-02 3.05e-03  -6.9 1.38e+00    -  8.00e-01 6.80e-01h  1
 169  7.4482721e-01 2.72e-03 3.21e-03  -6.5 7.94e-01    -  1.00e+00 1.00e+00f  1
iter    objective    inf_pr   inf_du lg(mu)  ||d||  lg(rg) alpha_du alpha_pr  ls
 170  7.4484786e-01 3.80e-03 5.23e-03  -6.3 5.00e-01    -  1.00e+00 1.00e+00h  1
 171  7.4483187e-01 3.95e-03 1.28e-03  -6.4 7.15e-01    -  8.67e-01 1.00e+00h  1
 172  7.4485183e-01 3.95e-03 1.53e-03  -6.4 9.83e-02    -  8.12e-01 3.89e-01H  1
 173  7.4485297e-01 8.37e-04 4.89e-04  -6.5 8.29e-02    -  8.31e-01 1.00e+00h  1
 174  7.4485575e-01 1.45e-06 2.79e-04  -6.5 1.34e-01    -  1.00e+00 1.00e+00h  1
 175  7.4485516e-01 2.72e-06 5.13e-04  -6.5 7.66e-02    -  1.00e+00 1.00e+00h  1
 176  7.4485451e-01 2.78e-06 7.05e-04  -6.5 8.50e-02    -  1.00e+00 1.00e+00h  1
 177  7.4485464e-01 5.87e-06 4.67e-04  -6.5 4.05e-02    -  1.00e+00 1.00e+00h  1
 178  7.4485494e-01 1.02e-06 1.16e-04  -6.5 2.46e-02    -  1.00e+00 1.00e+00h  1
 179  7.4485505e-01 4.60e-08 7.63e-05  -6.5 3.30e-02    -  1.00e+00 1.00e+00h  1
iter    objective    inf_pr   inf_du lg(mu)  ||d||  lg(rg) alpha_du alpha_pr  ls
 180  7.4484505e-01 1.06e-03 1.96e-03  -6.7 9.46e-01    -  1.00e+00 9.89e-01h  1
 181  7.4484013e-01 4.81e-03 2.57e-03  -6.8 2.89e-01    -  1.00e+00 1.00e+00h  1
 182  7.4483533e-01 1.64e-04 2.27e-03  -6.8 1.80e-01    -  1.00e+00 1.00e+00h  1
 183  7.4483613e-01 2.38e-04 9.21e-04  -7.1 2.30e-01    -  1.00e+00 1.00e+00h  1
 184  7.4483395e-01 8.55e-06 1.88e-03  -7.4 4.86e-02    -  1.00e+00 1.00e+00h  1
 185  7.4483178e-01 1.62e-04 1.10e-03  -8.0 6.19e-02    -  1.00e+00 1.00e+00h  1
 186  7.4483198e-01 4.32e-05 3.87e-03  -7.8 6.93e-02    -  1.00e+00 1.00e+00h  1
 187  7.4483150e-01 1.96e-05 1.99e-04  -8.2 4.76e-02    -  1.00e+00 1.00e+00h  1
 188  7.4483156e-01 2.27e-07 1.53e-04  -8.9 2.04e-02    -  1.00e+00 1.00e+00h  1
 189  7.4483149e-01 1.14e-04 1.07e-03  -8.6 4.88e-02    -  1.00e+00 1.00e+00h  1
iter    objective    inf_pr   inf_du lg(mu)  ||d||  lg(rg) alpha_du alpha_pr  ls
 190  7.4483161e-01 3.04e-04 5.93e-04  -8.1 8.82e-02    -  1.00e+00 9.04e-01h  1
 191  7.4483128e-01 3.69e-05 6.75e-04  -8.2 5.88e-02    -  1.00e+00 1.00e+00h  1
 192  7.4483134e-01 1.23e-06 3.10e-04  -8.4 3.05e-02    -  1.00e+00 1.00e+00h  1
 193  7.4483142e-01 7.76e-08 1.06e-04  -8.8 1.33e-02    -  1.00e+00 1.00e+00h  1
 194  7.4483132e-01 1.26e-06 2.56e-04  -9.2 3.78e-02    -  1.00e+00 1.00e+00h  1
 195  7.4483118e-01 2.09e-05 1.19e-03  -9.8 1.17e-01    -  1.00e+00 1.00e+00h  1
 196  7.4483064e-01 4.69e-05 1.77e-04  -9.5 3.91e-02    -  1.00e+00 1.00e+00h  1
 197  7.4483123e-01 2.30e-05 1.35e-04 -10.3 1.03e-02    -  1.00e+00 1.00e+00h  1
 198  7.4483124e-01 1.44e-06 1.88e-04 -10.1 2.37e-02    -  1.00e+00 1.00e+00h  1
 199  7.4483122e-01 2.02e-05 1.66e-03  -8.3 8.01e-01    -  1.00e+00 3.85e-01h  1
iter    objective    inf_pr   inf_du lg(mu)  ||d||  lg(rg) alpha_du alpha_pr  ls
 200  7.4483235e-01 1.23e-03 2.81e-03  -7.7 7.96e-01    -  1.00e+00 1.00e+00h  1
 201  7.4482952e-01 6.33e-04 2.87e-03  -7.8 1.77e-01    -  9.73e-01 4.15e-01h  1
 202  7.4483231e-01 1.37e-04 4.05e-04  -7.2 6.55e-01    -  3.79e-01 9.76e-01f  1
 203  7.4483005e-01 3.18e-03 5.12e-03  -7.5 6.96e-01    -  2.64e-01 4.70e-01h  1
 204  7.4482083e-01 3.09e-04 3.52e-04  -7.5 3.35e-01    -  1.00e+00 1.00e+00f  1
 205  7.4483151e-01 1.81e-03 1.07e-03  -7.9 4.51e-02    -  1.00e+00 1.00e+00h  1
 206  7.4483138e-01 4.81e-04 4.66e-04  -8.0 6.90e-02    -  1.00e+00 9.87e-01h  1
 207  7.4483140e-01 4.15e-04 7.32e-04  -8.0 3.30e-02    -  1.00e+00 3.39e-01f  2
 208  7.4483158e-01 2.68e-04 1.58e-04  -8.0 1.43e-02    -  1.00e+00 5.42e-01h  1
 209  7.4483175e-01 8.19e-08 1.28e-04  -8.0 2.37e-02    -  1.00e+00 1.00e+00f  1
iter    objective    inf_pr   inf_du lg(mu)  ||d||  lg(rg) alpha_du alpha_pr  ls
 210  7.4483171e-01 3.39e-07 3.65e-04  -8.0 1.30e-02    -  1.00e+00 1.00e+00h  1
 211  7.4483170e-01 2.47e-07 5.03e-04  -8.0 1.12e-02    -  1.00e+00 1.00e+00h  1
 212  7.4483169e-01 1.81e-06 5.94e-04  -8.0 1.44e-02    -  1.00e+00 1.00e+00h  1
 213  7.4483172e-01 3.75e-07 3.98e-05  -8.0 6.62e-03    -  1.00e+00 1.00e+00h  1

Number of Iterations....: 213

                                   (scaled)                 (unscaled)
Objective...............:   7.4483171797126513e-01    7.4483171797126513e-01
Dual infeasibility......:   3.9773088531466907e-05    3.9773088531466907e-05
Constraint violation....:   3.7508283938724850e-07    3.7508283938724850e-07
Variable bound violation:   0.0000000000000000e+00    0.0000000000000000e+00
Complementarity.........:   9.1988798214624648e-09    9.1988798214624648e-09
Overall NLP error.......:   3.9773088531466907e-05    3.9773088531466907e-05


Number of objective function evaluations             = 267
Number of objective gradient evaluations             = 214
Number of equality constraint evaluations            = 267
Number of inequality constraint evaluations          = 267
Number of equality constraint Jacobian evaluations   = 214
Number of inequality constraint Jacobian evaluations = 214
Number of Lagrangian Hessian evaluations             = 0
Total seconds in IPOPT                               = 37.427

EXIT: Optimal Solution Found.
